FILENAME:   ../instances_new/flowersnark/flowersnark17_3.cip
SETTINGS:   settings_isopr_ostrowskidynamicbranching_avoidsubtreenodes
TIMELIMIT:  7200
OUTPUTNAME: final_flowersnark__settings_isopr_ostrowskidynamicbranching_avoidsubtreenodes__3__
BINNAME:    bin/symmetries.linux.x86_64.gnu.opt.cpx
BASENAME:   flowersnark17_3.cip
SEED:       3
@01 ../instances_new/flowersnark/flowersnark17_3.cip ===========
@02 flowersnark17_3.cip
@03 1686559580
SCIP version 8.0.2 [precision: 8 byte] [memory: block] [mode: optimized] [LP solver: CPLEX 20.1.0.0] [GitHash: 5f0473c]
Copyright (C) 2002-2022 Konrad-Zuse-Zentrum fuer Informationstechnik Berlin (ZIB)

Symmetry handling routines - (c) Marc Pfetsch, Thomas Rehn, Christopher Hojny.
[GitHash: a1587cb]


Turned off presolver <gateextraction>.
reading parameter file <../settings/settings_isopr_ostrowskidynamicbranching_avoidsubtreenodes.set> ...

Changed settings:
limits/time = 7200
limits/restarts = 0
randomization/randomseedshift = 3
constraints/orbitope/sepafreq = -1
constraints/orbitope/propfreq = 1
presolving/gateextraction/maxrounds = 0
propagating/isoprune/avoidsubtreenodes = TRUE
useisoprune = TRUE


solving problem ...

original problem has 306 variables (306 bin, 0 int, 0 impl, 0 cont) and 306 constraints
presolving:
(round 1, exhaustive) 0 del vars, 0 del conss, 0 add conss, 0 chg bounds, 0 chg sides, 0 chg coeffs, 306 upgd conss, 0 impls, 306 clqs
   (0.0s) probing: 51/306 (16.7%) - 0 fixings, 0 aggregations, 0 implications, 0 bound changes
   (0.0s) probing aborted: 50/50 successive totally useless probings
Required symmetry:			(1 bin, 0 int, 0 cont); (fixed: 0 bin, 1 int, 0 cont)
Time for symmetry detection:		0.01 	(matrix graph, 612 nodes, 918 edges)
Number of generators:			5 	(max: 1500)
Order of symmetry group:		408
Log10 of symmetry group order:		2.6
Number of vars moved by some symmetry:	306
Total time for symmetry detection:	0.01

Turned off presolver <domcol>.
Turned off presolver <components>.

presolving (2 rounds: 2 fast, 2 medium, 2 exhaustive):
 0 deleted vars, 0 deleted constraints, 0 added constraints, 0 tightened bounds, 0 added holes, 0 changed sides, 0 changed coefficients
 0 implications, 306 cliques
presolved problem has 306 variables (306 bin, 0 int, 0 impl, 0 cont) and 307 constraints
    306 constraints of type <setppc>
      1 constraints of type <symmetries>
transformed objective value is always integral (scale: 1)
Presolving Time: 0.01

 time | node  | left  |LP iter|LP it/n|mem/heur|mdpt |frac |vars |cons |cols |rows |cuts |confs|strbr|  dualbound   | primalbound  |  gap   
  0.0s|     1 |     0 |    25 |     - |  4775k |   0 | 156 | 306 | 328 | 306 | 306 |   0 |  20 |   0 | 0.000000e+00 |      --      |    Inf 
  0.1s|     1 |     2 |   214 |     - |  5712k |   0 | 156 | 306 | 529 | 306 | 306 |   0 |  21 |  11 | 0.000000e+00 |      --      |    Inf 
  0.4s|   100 |    35 |  5945 |  58.1 |  6897k |  18 |  48 | 306 | 786 | 306 | 306 |   0 | 278 |  11 | 0.000000e+00 |      --      |    Inf 
  0.6s|   200 |    42 | 10996 |  54.3 |  7168k |  20 |  46 | 306 | 970 | 306 | 306 |   0 | 508 |  11 | 0.000000e+00 |      --      |    Inf 
  0.7s|   300 |    44 | 14846 |  49.0 |  7605k |  20 |   - | 306 |1154 | 306 | 306 |   0 | 695 |  11 | 0.000000e+00 |      --      |    Inf 
  0.9s|   400 |    48 | 17997 |  44.6 |  7784k |  20 |  46 | 306 |1326 | 306 | 306 |   0 | 867 |  11 | 0.000000e+00 |      --      |    Inf 
  1.0s|   500 |    38 | 21475 |  42.7 |  8229k |  20 |  28 | 306 |1511 | 306 | 306 |   0 |1053 |  11 | 0.000000e+00 |      --      |    Inf 
  1.2s|   600 |    20 | 24890 |  41.2 |  8394k |  20 |   - | 306 |1741 |   0 |   0 |   0 |1284 |  11 | 0.000000e+00 |      --      |    Inf 
  1.9s|   700 |    31 | 29491 |  41.9 |  8913k |  20 |  52 | 306 |1916 | 306 | 306 |   0 |1459 |  11 | 0.000000e+00 |      --      |    Inf 
  2.0s|   800 |    59 | 33388 |  41.6 |  9120k |  20 |   - | 306 |2151 |   0 |   0 |   0 |1694 |  11 | 0.000000e+00 |      --      |    Inf 
  2.4s|   900 |    82 | 37409 |  41.4 |    11M |  20 |  72 | 306 |2362 | 306 | 306 |   0 |1912 |  11 | 0.000000e+00 |      --      |    Inf 
  2.5s|  1000 |    97 | 40246 |  40.1 |    11M |  20 |  28 | 306 |2607 | 306 | 306 |   0 |2166 |  11 | 0.000000e+00 |      --      |    Inf 
  2.6s|  1100 |   106 | 43419 |  39.3 |    11M |  20 |  73 | 306 |2845 | 306 | 306 |   0 |2419 |  11 | 0.000000e+00 |      --      |    Inf 
  2.8s|  1200 |   121 | 46442 |  38.6 |    12M |  20 |  66 | 306 |3051 | 306 | 306 |   0 |2644 |  11 | 0.000000e+00 |      --      |    Inf 
  2.9s|  1300 |   136 | 50197 |  38.5 |    12M |  20 |  28 | 306 |3317 | 306 | 306 |   0 |2934 |  11 | 0.000000e+00 |      --      |    Inf 
 time | node  | left  |LP iter|LP it/n|mem/heur|mdpt |frac |vars |cons |cols |rows |cuts |confs|strbr|  dualbound   | primalbound  |  gap   
  3.1s|  1400 |   153 | 53920 |  38.4 |    13M |  20 |   - | 306 |3607 | 306 | 306 |   0 |3268 |  11 | 0.000000e+00 |      --      |    Inf 
  3.3s|  1500 |   161 | 57199 |  38.0 |    14M |  20 |   - | 306 |3839 | 306 | 306 |   0 |3572 |  11 | 0.000000e+00 |      --      |    Inf 
  3.4s|  1600 |   165 | 60691 |  37.8 |    15M |  20 |   - | 306 |4016 | 306 | 306 |   0 |3837 |  11 | 0.000000e+00 |      --      |    Inf 
  3.8s|  1700 |   180 | 63911 |  37.5 |    16M |  20 |  28 | 306 |4185 | 306 | 306 |   0 |4105 |  11 | 0.000000e+00 |      --      |    Inf 
  3.9s|  1800 |   185 | 66804 |  37.0 |    17M |  20 |   - | 306 |4238 | 306 | 306 |   0 |4319 |  11 | 0.000000e+00 |      --      |    Inf 
  4.1s|  1900 |   194 | 70883 |  37.2 |    17M |  20 |   - | 306 |4280 | 306 | 306 |   0 |4613 |  11 | 0.000000e+00 |      --      |    Inf 
  4.3s|  2000 |   193 | 73949 |  36.9 |    18M |  20 |  28 | 306 |4352 | 306 | 306 |   0 |4856 |  11 | 0.000000e+00 |      --      |    Inf 
  4.5s|  2100 |   197 | 77688 |  36.9 |    18M |  20 |   - | 306 |4335 |   0 |   0 |   0 |5136 |  11 | 0.000000e+00 |      --      |    Inf 
  4.6s|  2200 |   202 | 80657 |  36.6 |    19M |  20 |   - | 306 |4259 |   0 |   0 |   0 |5367 |  11 | 0.000000e+00 |      --      |    Inf 
  4.7s|  2300 |   203 | 83440 |  36.2 |    19M |  20 |  28 | 306 |4173 | 306 | 306 |   0 |5596 |  11 | 0.000000e+00 |      --      |    Inf 
  4.9s|  2400 |   202 | 86747 |  36.1 |    20M |  20 |   - | 306 |4213 | 306 | 306 |   0 |5798 |  11 | 0.000000e+00 |      --      |    Inf 
  5.0s|  2500 |   198 | 89444 |  35.7 |    20M |  20 |   - | 306 |4185 |   0 |   0 |   0 |6007 |  11 | 0.000000e+00 |      --      |    Inf 
  5.2s|  2600 |   198 | 92337 |  35.5 |    21M |  20 | 160 | 306 |4185 | 306 | 306 |   0 |6259 |  11 | 0.000000e+00 |      --      |    Inf 
  5.5s|  2700 |   208 | 95618 |  35.4 |    22M |  20 |   - | 306 |4290 |   0 |   0 |   0 |6499 |  11 | 0.000000e+00 |      --      |    Inf 
  5.7s|  2800 |   230 | 98489 |  35.1 |    22M |  20 |  48 | 306 |4545 | 306 | 306 |   0 |6834 |  11 | 0.000000e+00 |      --      |    Inf 
 time | node  | left  |LP iter|LP it/n|mem/heur|mdpt |frac |vars |cons |cols |rows |cuts |confs|strbr|  dualbound   | primalbound  |  gap   
  5.8s|  2900 |   222 |101055 |  34.8 |    22M |  20 |   - | 306 |4738 |   0 |   0 |   0 |7117 |  11 | 0.000000e+00 |      --      |    Inf 
  5.9s|  3000 |   213 |103667 |  34.5 |    22M |  20 |  55 | 306 |4844 | 306 | 306 |   0 |7349 |  11 | 0.000000e+00 |      --      |    Inf 
  6.1s|  3100 |   217 |106946 |  34.4 |    24M |  20 |  28 | 306 |4862 | 306 | 306 |   0 |7570 |  11 | 0.000000e+00 |      --      |    Inf 
  6.3s|  3200 |   241 |109660 |  34.2 |    24M |  20 |   - | 306 |4976 | 306 | 306 |   0 |7884 |  11 | 0.000000e+00 |      --      |    Inf 
  6.4s|  3300 |   230 |112491 |  34.0 |    24M |  20 |  42 | 306 |5031 | 306 | 306 |   0 |8093 |  11 | 0.000000e+00 |      --      |    Inf 
  6.6s|  3400 |   239 |116305 |  34.2 |    24M |  20 |  65 | 306 |5042 | 306 | 306 |   0 |8353 |  11 | 0.000000e+00 |      --      |    Inf 
  6.8s|  3500 |   229 |119570 |  34.1 |    24M |  20 |  28 | 306 |5162 | 306 | 306 |   0 |8611 |  11 | 0.000000e+00 |      --      |    Inf 
  6.9s|  3600 |   223 |123333 |  34.2 |    24M |  20 |   - | 306 |5205 | 306 | 306 |   0 |8830 |  11 | 0.000000e+00 |      --      |    Inf 
  7.1s|  3700 |   223 |127332 |  34.4 |    24M |  20 |  28 | 306 |5253 | 306 | 306 |   0 |9103 |  11 | 0.000000e+00 |      --      |    Inf 
  7.2s|  3800 |   226 |129979 |  34.2 |    24M |  20 |  34 | 306 |5276 | 306 | 306 |   0 |9318 |  11 | 0.000000e+00 |      --      |    Inf 
  7.4s|  3900 |   244 |133394 |  34.2 |    24M |  20 |   - | 306 |5356 | 306 | 306 |   0 |9657 |  11 | 0.000000e+00 |      --      |    Inf 
  7.5s|  4000 |   234 |136089 |  34.0 |    24M |  20 |  28 | 306 |5430 | 306 | 306 |   0 |9837 |  11 | 0.000000e+00 |      --      |    Inf 
  7.6s|  4100 |   227 |139348 |  33.9 |    24M |  20 |  34 | 306 |5533 | 306 | 306 |   0 |  10k|  11 | 0.000000e+00 |      --      |    Inf 
  7.8s|  4200 |   239 |143576 |  34.1 |    24M |  20 |  59 | 306 |5619 | 306 | 306 |   0 |  10k|  11 | 0.000000e+00 |      --      |    Inf 
  8.0s|  4300 |   234 |146420 |  34.0 |    25M |  20 |  84 | 306 |5590 | 306 | 306 |   0 |  10k|  11 | 0.000000e+00 |      --      |    Inf 
 time | node  | left  |LP iter|LP it/n|mem/heur|mdpt |frac |vars |cons |cols |rows |cuts |confs|strbr|  dualbound   | primalbound  |  gap   
  8.1s|  4400 |   240 |149779 |  34.0 |    26M |  20 |   - | 306 |5531 | 306 | 306 |   0 |  10k|  11 | 0.000000e+00 |      --      |    Inf 
  8.3s|  4500 |   231 |153335 |  34.0 |    26M |  20 |   - | 306 |5506 | 306 | 306 |   0 |  10k|  11 | 0.000000e+00 |      --      |    Inf 
  8.4s|  4600 |   239 |156039 |  33.9 |    26M |  20 | 104 | 306 |5594 | 306 | 306 |   0 |  11k|  11 | 0.000000e+00 |      --      |    Inf 
  8.6s|  4700 |   250 |158665 |  33.7 |    26M |  20 |   - | 306 |5391 | 306 | 306 |   0 |  11k|  11 | 0.000000e+00 |      --      |    Inf 
  8.7s|  4800 |   248 |161029 |  33.5 |    26M |  20 |  62 | 306 |5209 | 306 | 306 |   0 |  11k|  11 | 0.000000e+00 |      --      |    Inf 
  8.9s|  4900 |   250 |164210 |  33.5 |    26M |  20 |  56 | 306 |5160 | 306 | 306 |   0 |  11k|  11 | 0.000000e+00 |      --      |    Inf 
  9.4s|  5000 |   263 |167795 |  33.5 |    26M |  20 |  28 | 306 |5077 | 306 | 306 |   0 |  11k|  11 | 0.000000e+00 |      --      |    Inf 
  9.6s|  5100 |   267 |170946 |  33.5 |    26M |  20 |   - | 306 |5127 |   0 |   0 |   0 |  12k|  11 | 0.000000e+00 |      --      |    Inf 
  9.7s|  5200 |   279 |173240 |  33.3 |    26M |  20 |  28 | 306 |5204 | 306 | 306 |   0 |  12k|  11 | 0.000000e+00 |      --      |    Inf 
  9.9s|  5300 |   273 |176521 |  33.3 |    26M |  20 |   - | 306 |5284 |   0 |   0 |   0 |  12k|  11 | 0.000000e+00 |      --      |    Inf 
 10.1s|  5400 |   269 |179334 |  33.2 |    27M |  20 |   - | 306 |5380 |   0 |   0 |   0 |  12k|  11 | 0.000000e+00 |      --      |    Inf 
 10.2s|  5500 |   269 |181483 |  33.0 |    27M |  20 |  40 | 306 |5433 | 306 | 306 |   0 |  12k|  11 | 0.000000e+00 |      --      |    Inf 
 10.4s|  5600 |   267 |183813 |  32.8 |    27M |  20 |   - | 306 |5347 | 306 | 306 |   0 |  13k|  11 | 0.000000e+00 |      --      |    Inf 
 10.5s|  5700 |   269 |186025 |  32.6 |    27M |  20 |  28 | 306 |5061 | 306 | 306 |   0 |  13k|  11 | 0.000000e+00 |      --      |    Inf 
 10.6s|  5800 |   259 |188087 |  32.4 |    27M |  20 |   - | 306 |5027 | 306 | 306 |   0 |  13k|  11 | 0.000000e+00 |      --      |    Inf 
 time | node  | left  |LP iter|LP it/n|mem/heur|mdpt |frac |vars |cons |cols |rows |cuts |confs|strbr|  dualbound   | primalbound  |  gap   
 10.8s|  5900 |   259 |190924 |  32.3 |    27M |  20 | 105 | 306 |4813 | 306 | 306 |   0 |  13k|  11 | 0.000000e+00 |      --      |    Inf 
 11.0s|  6000 |   250 |193598 |  32.2 |    27M |  20 |   - | 306 |4705 |   0 |   0 |   0 |  13k|  11 | 0.000000e+00 |      --      |    Inf 
 11.2s|  6100 |   247 |197161 |  32.3 |    27M |  20 |   - | 306 |4644 | 306 | 306 |   0 |  13k|  11 | 0.000000e+00 |      --      |    Inf 
 11.3s|  6200 |   245 |199732 |  32.2 |    27M |  20 |   - | 306 |4595 | 306 | 306 |   0 |  14k|  11 | 0.000000e+00 |      --      |    Inf 
 11.5s|  6300 |   238 |202517 |  32.1 |    27M |  20 |   - | 306 |4650 | 306 | 306 |   0 |  14k|  11 | 0.000000e+00 |      --      |    Inf 
 11.6s|  6400 |   227 |205354 |  32.1 |    27M |  20 |   - | 306 |4635 | 306 | 306 |   0 |  14k|  11 | 0.000000e+00 |      --      |    Inf 
 11.8s|  6500 |   219 |208587 |  32.1 |    27M |  20 |   - | 306 |4698 | 306 | 306 |   0 |  14k|  11 | 0.000000e+00 |      --      |    Inf 
 11.9s|  6600 |   212 |211619 |  32.0 |    27M |  20 |   - | 306 |4689 | 306 | 306 |   0 |  14k|  11 | 0.000000e+00 |      --      |    Inf 
 12.1s|  6700 |   194 |214714 |  32.0 |    27M |  20 | 164 | 306 |4602 | 306 | 306 |   0 |  15k|  11 | 0.000000e+00 |      --      |    Inf 
 12.3s|  6800 |   193 |218964 |  32.2 |    27M |  20 |  52 | 306 |4563 | 306 | 306 |   0 |  15k|  11 | 0.000000e+00 |      --      |    Inf 
 12.5s|  6900 |   172 |221888 |  32.1 |    27M |  20 |  28 | 306 |4521 | 306 | 306 |   0 |  15k|  11 | 0.000000e+00 |      --      |    Inf 
 12.6s|  7000 |   165 |225456 |  32.2 |    27M |  20 |   - | 306 |4438 |   0 |   0 |   0 |  15k|  11 | 0.000000e+00 |      --      |    Inf 
 12.8s|  7100 |   161 |228640 |  32.2 |    27M |  20 |  83 | 306 |4385 | 306 | 306 |   0 |  16k|  11 | 0.000000e+00 |      --      |    Inf 
 13.0s|  7200 |   179 |233797 |  32.5 |    27M |  20 |  34 | 306 |4343 | 306 | 306 |   0 |  16k|  11 | 0.000000e+00 |      --      |    Inf 
 13.2s|  7300 |   168 |238087 |  32.6 |    28M |  20 |   - | 306 |4401 | 306 | 306 |   0 |  16k|  11 | 0.000000e+00 |      --      |    Inf 
 time | node  | left  |LP iter|LP it/n|mem/heur|mdpt |frac |vars |cons |cols |rows |cuts |confs|strbr|  dualbound   | primalbound  |  gap   
 13.4s|  7400 |   159 |241773 |  32.7 |    28M |  20 |  40 | 306 |4377 | 306 | 306 |   0 |  16k|  11 | 0.000000e+00 |      --      |    Inf 
 13.6s|  7500 |   153 |246042 |  32.8 |    28M |  20 |   - | 306 |4390 |   0 |   0 |   0 |  16k|  11 | 0.000000e+00 |      --      |    Inf 
 13.7s|  7600 |   151 |249732 |  32.8 |    28M |  20 |  34 | 306 |4360 | 306 | 306 |   0 |  17k|  11 | 0.000000e+00 |      --      |    Inf 
 13.9s|  7700 |   154 |252376 |  32.8 |    28M |  20 |   - | 306 |4361 | 306 | 306 |   0 |  17k|  11 | 0.000000e+00 |      --      |    Inf 
 14.1s|  7800 |   160 |255425 |  32.7 |    28M |  20 |   - | 306 |4443 | 306 | 306 |   0 |  17k|  11 | 0.000000e+00 |      --      |    Inf 
 14.2s|  7900 |   160 |258028 |  32.6 |    28M |  20 |  28 | 306 |4509 | 306 | 306 |   0 |  17k|  11 | 0.000000e+00 |      --      |    Inf 
 14.3s|  8000 |   161 |260270 |  32.5 |    28M |  20 |  60 | 306 |4586 | 306 | 306 |   0 |  18k|  11 | 0.000000e+00 |      --      |    Inf 
 14.5s|  8100 |   151 |263404 |  32.5 |    28M |  20 |   - | 306 |4573 | 306 | 306 |   0 |  18k|  11 | 0.000000e+00 |      --      |    Inf 
 14.7s|  8200 |   158 |265718 |  32.4 |    28M |  20 |  82 | 306 |4635 | 306 | 306 |   0 |  18k|  11 | 0.000000e+00 |      --      |    Inf 
 14.8s|  8300 |   150 |269551 |  32.5 |    28M |  20 |   - | 306 |4676 | 306 | 306 |   0 |  18k|  11 | 0.000000e+00 |      --      |    Inf 
 15.0s|  8400 |   156 |272814 |  32.5 |    28M |  20 |  48 | 306 |4675 | 306 | 306 |   0 |  18k|  11 | 0.000000e+00 |      --      |    Inf 
 15.1s|  8500 |   146 |276138 |  32.5 |    28M |  20 | 112 | 306 |4682 | 306 | 306 |   0 |  19k|  11 | 0.000000e+00 |      --      |    Inf 
 15.3s|  8600 |   150 |278761 |  32.4 |    28M |  20 |  84 | 306 |4726 | 306 | 306 |   0 |  19k|  11 | 0.000000e+00 |      --      |    Inf 
 15.4s|  8700 |   145 |280929 |  32.3 |    28M |  20 |   - | 306 |4811 |   0 |   0 |   0 |  19k|  11 | 0.000000e+00 |      --      |    Inf 
 15.5s|  8800 |   158 |283157 |  32.2 |    28M |  20 |   - | 306 |4918 |   0 |   0 |   0 |  19k|  11 | 0.000000e+00 |      --      |    Inf 
 time | node  | left  |LP iter|LP it/n|mem/heur|mdpt |frac |vars |cons |cols |rows |cuts |confs|strbr|  dualbound   | primalbound  |  gap   
 15.6s|  8900 |   143 |285112 |  32.0 |    28M |  20 | 112 | 306 |5024 | 306 | 306 |   0 |  20k|  11 | 0.000000e+00 |      --      |    Inf 
 15.9s|  9000 |   135 |288110 |  32.0 |    28M |  20 |   - | 306 |5024 | 306 | 306 |   0 |  20k|  11 | 0.000000e+00 |      --      |    Inf 
 16.0s|  9100 |   121 |291200 |  32.0 |    28M |  20 |   - | 306 |4957 |   0 |   0 |   0 |  20k|  11 | 0.000000e+00 |      --      |    Inf 
 16.4s|  9200 |   135 |295030 |  32.1 |    28M |  20 |   - | 306 |4874 | 306 | 306 |   0 |  20k|  11 | 0.000000e+00 |      --      |    Inf 
 16.5s|  9300 |   127 |298122 |  32.0 |    28M |  20 |   - | 306 |4811 |   0 |   0 |   0 |  20k|  11 | 0.000000e+00 |      --      |    Inf 
 16.7s|  9400 |   120 |302007 |  32.1 |    28M |  20 |   - | 306 |4814 | 306 | 306 |   0 |  21k|  11 | 0.000000e+00 |      --      |    Inf 
 16.9s|  9500 |   138 |306051 |  32.2 |    28M |  20 |  96 | 306 |4774 | 306 | 306 |   0 |  21k|  11 | 0.000000e+00 |      --      |    Inf 
 17.1s|  9600 |   159 |310440 |  32.3 |    28M |  20 |  72 | 306 |4840 | 306 | 306 |   0 |  21k|  11 | 0.000000e+00 |      --      |    Inf 
 17.3s|  9700 |   172 |314110 |  32.4 |    28M |  20 |  88 | 306 |4928 | 306 | 306 |   0 |  21k|  11 | 0.000000e+00 |      --      |    Inf 
 17.4s|  9800 |   167 |317275 |  32.4 |    28M |  20 |   - | 306 |4951 |   0 |   0 |   0 |  21k|  11 | 0.000000e+00 |      --      |    Inf 
 17.6s|  9900 |   150 |321092 |  32.4 |    28M |  20 |  28 | 306 |4936 | 306 | 306 |   0 |  22k|  11 | 0.000000e+00 |      --      |    Inf 
 17.8s| 10000 |   141 |325074 |  32.5 |    28M |  20 |  42 | 306 |4818 | 306 | 306 |   0 |  22k|  11 | 0.000000e+00 |      --      |    Inf 
 18.0s| 10100 |   137 |330184 |  32.7 |    28M |  20 |   - | 306 |4908 | 306 | 306 |   0 |  22k|  11 | 0.000000e+00 |      --      |    Inf 
 18.2s| 10200 |   136 |335235 |  32.9 |    28M |  20 |  72 | 306 |5011 | 306 | 306 |   0 |  22k|  11 | 0.000000e+00 |      --      |    Inf 
 18.4s| 10300 |   133 |340121 |  33.0 |    28M |  20 |   - | 306 |5043 | 306 | 306 |   0 |  22k|  11 | 0.000000e+00 |      --      |    Inf 
 time | node  | left  |LP iter|LP it/n|mem/heur|mdpt |frac |vars |cons |cols |rows |cuts |confs|strbr|  dualbound   | primalbound  |  gap   
 18.6s| 10400 |   129 |345189 |  33.2 |    28M |  20 |  28 | 306 |5169 | 306 | 306 |   0 |  23k|  11 | 0.000000e+00 |      --      |    Inf 
 18.8s| 10500 |   129 |350033 |  33.3 |    28M |  20 |  40 | 306 |5252 | 306 | 306 |   0 |  23k|  11 | 0.000000e+00 |      --      |    Inf 
 18.9s| 10600 |   121 |354676 |  33.4 |    28M |  20 |  28 | 306 |5365 | 306 | 306 |   0 |  23k|  11 | 0.000000e+00 |      --      |    Inf 
 19.2s| 10700 |   129 |358582 |  33.5 |    28M |  20 |  58 | 306 |5445 | 306 | 306 |   0 |  23k|  11 | 0.000000e+00 |      --      |    Inf 
 19.3s| 10800 |   122 |362906 |  33.6 |    28M |  20 |   - | 306 |5512 | 306 | 306 |   0 |  23k|  11 | 0.000000e+00 |      --      |    Inf 
 19.5s| 10900 |   117 |367090 |  33.7 |    28M |  20 |  28 | 306 |5589 | 306 | 306 |   0 |  23k|  11 | 0.000000e+00 |      --      |    Inf 
 19.7s| 11000 |   122 |370675 |  33.7 |    28M |  20 |  58 | 306 |5604 | 306 | 306 |   0 |  24k|  11 | 0.000000e+00 |      --      |    Inf 
 19.9s| 11100 |   113 |373461 |  33.6 |    28M |  20 |  80 | 306 |5606 | 306 | 306 |   0 |  24k|  11 | 0.000000e+00 |      --      |    Inf 
 20.1s| 11200 |   105 |376875 |  33.6 |    28M |  20 |   - | 306 |5605 | 306 | 306 |   0 |  24k|  11 | 0.000000e+00 |      --      |    Inf 
 20.3s| 11300 |    90 |379606 |  33.6 |    28M |  20 |   - | 306 |5550 | 306 | 306 |   0 |  24k|  11 | 0.000000e+00 |      --      |    Inf 
 20.4s| 11400 |    88 |382627 |  33.6 |    28M |  20 |  28 | 306 |5541 | 306 | 306 |   0 |  24k|  11 | 0.000000e+00 |      --      |    Inf 
 20.6s| 11500 |    96 |385760 |  33.5 |    28M |  20 |   - | 306 |5480 |   0 |   0 |   0 |  25k|  11 | 0.000000e+00 |      --      |    Inf 
 20.8s| 11600 |    97 |388885 |  33.5 |    28M |  20 |   - | 306 |5621 |   0 |   0 |   0 |  25k|  11 | 0.000000e+00 |      --      |    Inf 
 20.9s| 11700 |    85 |392366 |  33.5 |    28M |  20 | 115 | 306 |5663 | 306 | 306 |   0 |  25k|  11 | 0.000000e+00 |      --      |    Inf 
 21.1s| 11800 |    79 |395797 |  33.5 |    28M |  20 |   - | 306 |5753 |   0 |   0 |   0 |  25k|  11 | 0.000000e+00 |      --      |    Inf 
 time | node  | left  |LP iter|LP it/n|mem/heur|mdpt |frac |vars |cons |cols |rows |cuts |confs|strbr|  dualbound   | primalbound  |  gap   
 21.2s| 11900 |    71 |398693 |  33.5 |    28M |  20 |  84 | 306 |5659 | 306 | 306 |   0 |  25k|  11 | 0.000000e+00 |      --      |    Inf 
 21.4s| 12000 |    51 |401338 |  33.4 |    28M |  20 |  28 | 306 |5612 | 306 | 306 |   0 |  26k|  11 | 0.000000e+00 |      --      |    Inf 
 21.6s| 12100 |    38 |405324 |  33.5 |    28M |  20 |   - | 306 |5493 | 306 | 306 |   0 |  26k|  11 | 0.000000e+00 |      --      |    Inf 
 21.8s| 12200 |    28 |408158 |  33.4 |    28M |  20 |  28 | 306 |5452 | 306 | 306 |   0 |  26k|  11 | 0.000000e+00 |      --      |    Inf 
 21.9s| 12300 |    52 |410832 |  33.4 |    28M |  20 |  34 | 306 |5488 | 306 | 306 |   0 |  26k|  11 | 0.000000e+00 |      --      |    Inf 
 22.0s| 12400 |    40 |412411 |  33.2 |    28M |  20 |  90 | 306 |5636 | 306 | 306 |   0 |  27k|  11 | 0.000000e+00 |      --      |    Inf 
 22.1s| 12500 |    30 |413815 |  33.1 |    28M |  20 |  68 | 306 |5661 | 306 | 306 |   0 |  27k|  11 | 0.000000e+00 |      --      |    Inf 
 22.3s| 12600 |    39 |415633 |  33.0 |    28M |  20 |  28 | 306 |5707 | 306 | 306 |   0 |  27k|  11 | 0.000000e+00 |      --      |    Inf 
 22.4s| 12700 |    37 |417617 |  32.9 |    28M |  20 |  52 | 306 |5836 | 306 | 306 |   0 |  27k|  11 | 0.000000e+00 |      --      |    Inf 
 22.5s| 12800 |    40 |420140 |  32.8 |    28M |  20 |   - | 306 |5953 | 306 | 306 |   0 |  27k|  11 | 0.000000e+00 |      --      |    Inf 
 22.7s| 12900 |    38 |422821 |  32.8 |    28M |  20 |  28 | 306 |6024 | 306 | 306 |   0 |  27k|  11 | 0.000000e+00 |      --      |    Inf 
 22.9s| 13000 |    38 |424872 |  32.7 |    28M |  20 |   - | 306 |6107 | 306 | 306 |   0 |  28k|  11 | 0.000000e+00 |      --      |    Inf 
 23.0s| 13100 |    40 |428204 |  32.7 |    28M |  20 |   - | 306 |6361 | 306 | 306 |   0 |  28k|  11 | 0.000000e+00 |      --      |    Inf 
 23.2s| 13200 |    35 |431495 |  32.7 |    28M |  20 |   - | 306 |6509 | 306 | 306 |   0 |  28k|  11 | 0.000000e+00 |      --      |    Inf 
 23.3s| 13300 |    35 |433341 |  32.6 |    28M |  20 |  67 | 306 |6599 | 306 | 306 |   0 |  28k|  11 | 0.000000e+00 |      --      |    Inf 
 time | node  | left  |LP iter|LP it/n|mem/heur|mdpt |frac |vars |cons |cols |rows |cuts |confs|strbr|  dualbound   | primalbound  |  gap   
 23.4s| 13400 |    27 |434867 |  32.4 |    28M |  20 |   - | 306 |6714 |   0 |   0 |   0 |  28k|  11 | 0.000000e+00 |      --      |    Inf 
 23.5s| 13500 |    24 |437460 |  32.4 |    28M |  20 |  28 | 306 |6667 | 306 | 306 |   0 |  29k|  11 | 0.000000e+00 |      --      |    Inf 
 23.7s| 13600 |    15 |441266 |  32.4 |    28M |  20 |   - | 306 |6551 | 306 | 306 |   0 |  29k|  11 | 0.000000e+00 |      --      |    Inf 
 23.8s| 13700 |     8 |444661 |  32.4 |    28M |  20 | 160 | 306 |6489 | 306 | 306 |   0 |  29k|  11 | 0.000000e+00 |      --      |    Inf 
 24.0s| 13800 |    10 |448074 |  32.5 |    28M |  20 |   - | 306 |6440 | 306 | 306 |   0 |  29k|  11 | 0.000000e+00 |      --      |    Inf 

SCIP Status        : problem is solved [infeasible]
Solving Time (sec) : 24.15
Solving Nodes      : 13871
Primal Bound       : +1.00000000000000e+20 (0 solutions)
Dual Bound         : +1.00000000000000e+20
Gap                : 0.00 %

Number of variables fixed to 0 by isomorphism pruning:	   144
Number of variables fixed to 1 by isomorphism pruning:	     1
@04 1686559604
